10J3M/DAT/10J3MNLX-3.dat
10 3
24.4628 4.946
32.352 5.6879
31.1003 5.5768
23.1306 4.8094
29.9901 5.4763
25.2812 5.028
20.2546 4.5005
28.2174 5.312
17.7521 4.2133
20.213 4.4959
16.682