10J3M/SOL/10J3MNLX-3.sol
solution status: optimal solution found
objective value:                     84.2512262217264
x#1#1                                               1 	(obj:0)
x#2#3                                               1 	(obj:0)
x#3#1                               0.427785020864754 	(obj:0)
x#3#2                               0.572214979135246 	(obj:0)
x#4#1                               0.727051217826728 	(obj:0)
x#4#2                               0.272948782173272 	(obj:0)
x#5#2                                               1 	(obj:0)
x#6#1                                               1 	(obj:0)
x#7#2                                               1 	(obj:0)
x#8#1                               0.155430792286441 	(obj:0)
x#8#3                               0.844569207713559 	(obj:0)
x#9#3                               0.999976265635013 	(obj:0)
x#10#2                              0.489635363636741 	(obj:0)
x#10#3                              0.510364636363259 	(obj:0)
z                                    84.2512262217264 	(obj:1)
